c User generated cnf file
p cnf 10 30
2 4 -3 0 
3 -10 8 0 
2 -5 4 0 
7 -6 5 0 
3 10 -2 0 
8 1 -8 0 
3 7 -7 0 
8 3 -2 0 
3 9 -9 0 
6 -1 2 0 
7 -2 6 0 
4 9 -3 0 
9 9 -7 0 
10 10 -2 0 
2 -7 10 0 
9 5 -10 0 
8 -4 2 0 
10 -1 5 0 
7 -4 3 0 
1 -6 1 0 
4 7 -8 0 
7 8 -7 0 
8 3 -6 0 
8 9 -1 0 
5 6 -9 0 
4 7 -10 0 
2 5 -6 0 
2 1 -8 0 
8 4 -3 0 
3 -10 1 0 
